4 100 2072
7 8 9 8 11 11 9 14 6 7
2 2 3 1
6 7
7 3
1 2 3
6
0 35.0 35.0 0.0 0.0 0 230
2 41.0 49.0 10.0 10.0 73 204 72 0 0 1 0 0 0 0 0 0 0
3 35.0 17.0 10.0 7.0 18 147 28 0 0 0 0 1 0 0 0 0 0
4 55.0 45.0 10.0 13.0 76 165 1 1 1 0 1 0 1 0 0 0 0
5 55.0 20.0 10.0 19.0 73 195 74 0 0 0 0 0 1 0 0 0 0
6 15.0 30.0 10.0 26.0 20 167 20 0 1 0 0 0 1 0 0 0 1
7 25.0 30.0 10.0 3.0 49 158 10 0 0 0 1 1 0 1 1 0 0
8 20.0 50.0 10.0 5.0 36 135 51 0 0 0 0 1 0 1 0 0 1
9 10.0 43.0 10.0 9.0 50 149 40 0 0 0 0 0 1 0 0 0 0
10 55.0 60.0 10.0 16.0 47 156 21 0 0 0 0 0 0 0 1 0 0
11 30.0 60.0 10.0 16.0 85 172 14 0 0 0 0 1 0 0 0 0 0
12 20.0 65.0 10.0 12.0 33 152 37 0 0 0 0 1 1 0 0 0 0
13 50.0 35.0 10.0 19.0 15 133 58 0 0 0 1 0 0 0 0 0 0
14 30.0 25.0 10.0 23.0 79 208 43 0 0 1 0 0 0 0 1 0 1
15 15.0 10.0 10.0 20.0 32 187 32 0 0 1 0 0 0 0 0 0 0
16 30.0 5.0 10.0 8.0 30 152 97 0 0 0 0 0 1 0 0 0 0
17 10.0 20.0 10.0 19.0 29 139 30 0 0 1 0 1 0 0 0 0 0
18 5.0 30.0 10.0 2.0 60 189 84 0 1 0 1 0 1 0 1 0 0
19 20.0 40.0 10.0 12.0 47 136 69 0 1 0 1 0 0 0 0 0 1
20 15.0 60.0 10.0 17.0 32 146 21 0 0 0 1 0 0 0 0 0 0
21 45.0 65.0 10.0 9.0 79 182 96 0 0 0 0 1 0 0 1 0 0
22 45.0 20.0 10.0 11.0 18 136 14 1 0 0 0 0 0 0 0 0 0
23 45.0 10.0 10.0 18.0 50 153 54 1 0 0 0 0 1 1 0 1 0
24 55.0 5.0 10.0 29.0 36 155 22 0 0 0 1 0 0 0 1 1 0
25 65.0 35.0 10.0 3.0 58 190 8 0 1 0 0 0 1 0 0 0 0
26 65.0 20.0 10.0 6.0 56 186 57 1 0 0 1 1 0 0 1 0 0
27 45.0 30.0 10.0 17.0 87 186 83 1 0 0 0 0 0 0 0 0 0
28 35.0 40.0 10.0 16.0 5 140 69 1 1 0 0 0 0 0 0 0 0
29 41.0 37.0 10.0 16.0 6 136 11 0 1 0 0 0 0 0 1 0 0
30 64.0 42.0 10.0 9.0 29 150 92 0 1 0 0 1 0 1 0 0 0
31 40.0 60.0 10.0 21.0 25 132 1 0 0 0 0 0 0 0 0 1 1
32 31.0 52.0 10.0 27.0 17 138 26 0 0 0 0 1 1 0 0 0 0
33 35.0 69.0 10.0 23.0 67 186 44 0 0 0 0 0 0 0 0 1 0
34 53.0 52.0 10.0 11.0 24 161 26 0 0 0 0 0 0 1 0 0 0
35 65.0 55.0 10.0 14.0 70 173 57 0 0 0 0 0 1 1 1 0 0
36 63.0 65.0 10.0 8.0 54 178 49 1 0 0 1 0 0 0 1 1 1
37 2.0 60.0 10.0 5.0 41 178 38 0 0 0 0 1 0 1 0 0 0
38 20.0 20.0 10.0 8.0 87 190 51 1 1 0 0 0 1 0 1 0 0
39 5.0 5.0 10.0 16.0 42 153 15 0 1 0 1 0 0 0 0 0 1
40 60.0 12.0 10.0 31.0 33 186 3 0 0 1 0 0 0 1 1 0 0
41 40.0 25.0 10.0 9.0 40 139 12 1 0 0 0 1 0 0 0 0 0
42 42.0 7.0 10.0 5.0 43 160 94 0 0 1 0 0 0 0 0 0 0
43 24.0 12.0 10.0 5.0 25 158 12 0 0 0 0 1 0 0 0 1 0
44 23.0 3.0 10.0 7.0 82 185 57 1 0 0 1 0 0 0 0 1 0
45 11.0 14.0 10.0 18.0 31 144 72 0 0 0 0 0 1 0 0 0 0
46 6.0 38.0 10.0 16.0 29 169 26 0 0 0 0 0 0 0 0 0 1
47 2.0 48.0 10.0 1.0 63 180 12 0 0 0 1 0 0 1 0 1 0
48 8.0 56.0 10.0 27.0 34 176 85 0 0 0 0 0 1 0 0 0 0
49 13.0 52.0 10.0 36.0 65 192 41 0 0 0 0 0 1 0 0 0 0
50 6.0 68.0 10.0 30.0 73 152 84 0 0 0 0 0 0 1 0 0 0
51 47.0 47.0 10.0 13.0 75 182 47 0 0 0 0 0 0 0 1 0 0
52 49.0 58.0 10.0 10.0 36 149 86 0 0 0 0 0 1 0 0 0 0
53 27.0 43.0 10.0 9.0 11 133 79 0 1 0 0 0 0 0 0 0 0
54 37.0 31.0 10.0 14.0 51 148 40 0 0 1 0 0 0 0 1 0 0
55 57.0 29.0 10.0 18.0 90 197 95 1 0 0 0 0 0 0 1 0 0
56 63.0 23.0 10.0 2.0 69 189 54 0 1 0 0 0 0 0 1 0 1
57 53.0 12.0 10.0 6.0 76 190 25 1 0 0 0 0 0 1 0 0 1
58 32.0 12.0 10.0 7.0 48 163 24 1 0 0 1 0 1 1 0 0 0
59 36.0 26.0 10.0 18.0 84 210 11 0 1 0 0 0 0 1 1 1 1
60 21.0 24.0 10.0 28.0 17 183 95 0 0 0 0 1 0 0 0 0 0
61 17.0 34.0 10.0 3.0 70 201 95 0 0 0 0 1 0 0 0 0 0
62 12.0 24.0 10.0 13.0 29 132 97 0 0 0 0 1 0 0 0 0 0
63 24.0 58.0 10.0 19.0 25 154 68 0 0 0 1 0 0 0 0 0 1
64 27.0 69.0 10.0 10.0 34 172 30 0 0 0 0 0 1 0 0 0 0
65 15.0 77.0 10.0 9.0 46 165 34 0 0 0 0 0 0 1 0 0 0
66 62.0 77.0 10.0 20.0 49 170 45 0 0 0 0 0 1 0 1 0 0
67 49.0 73.0 10.0 25.0 68 179 57 1 0 1 0 0 0 0 0 0 0
68 67.0 5.0 10.0 25.0 43 156 80 0 0 1 0 0 0 0 0 0 0
69 56.0 39.0 10.0 36.0 80 198 2 0 0 0 0 0 1 0 0 0 0
70 37.0 47.0 10.0 6.0 12 137 32 1 1 1 0 0 0 0 0 0 0
71 37.0 56.0 10.0 5.0 48 198 4 0 0 0 0 0 1 0 0 0 0
72 57.0 68.0 10.0 15.0 39 148 64 0 0 0 0 0 1 0 0 0 0
73 47.0 16.0 10.0 25.0 22 170 59 0 0 0 0 1 1 1 0 0 0
74 44.0 17.0 10.0 9.0 30 135 28 0 1 0 0 0 0 1 0 0 0
75 46.0 13.0 10.0 8.0 74 195 84 0 0 0 0 0 0 0 1 0 0
76 49.0 11.0 10.0 18.0 27 141 90 1 0 0 0 1 0 1 0 0 0
77 49.0 42.0 10.0 13.0 27 128 83 0 0 0 1 0 1 0 0 0 0
78 53.0 43.0 10.0 14.0 72 200 59 0 1 1 0 0 0 1 0 0 0
79 61.0 52.0 10.0 3.0 42 159 70 0 0 0 0 1 0 0 1 1 0
80 57.0 48.0 10.0 23.0 47 146 54 0 0 0 1 0 0 0 1 0 1
81 56.0 37.0 10.0 6.0 73 198 43 1 0 0 0 0 0 0 1 0 0
82 55.0 54.0 10.0 26.0 57 140 3 0 0 0 0 1 0 0 0 1 0
83 15.0 47.0 10.0 16.0 23 146 13 0 0 0 0 0 0 0 0 0 1
84 14.0 37.0 10.0 11.0 21 157 77 0 0 0 0 0 1 0 0 0 0
85 11.0 31.0 10.0 7.0 57 154 5 0 1 0 0 0 1 0 0 0 0
86 16.0 22.0 10.0 41.0 44 147 80 0 0 1 0 1 0 1 1 0 1
87 4.0 18.0 10.0 35.0 49 148 10 0 1 0 0 0 0 0 1 0 0
88 28.0 18.0 10.0 26.0 61 134 41 1 0 0 1 0 0 1 1 0 1
89 26.0 52.0 10.0 9.0 21 136 31 0 0 1 0 0 0 0 0 0 0
90 26.0 35.0 10.0 15.0 68 211 6 0 0 0 0 0 1 0 1 0 0
91 31.0 67.0 10.0 3.0 46 153 16 0 0 0 0 0 0 0 0 1 0
92 15.0 19.0 10.0 1.0 70 194 20 0 0 0 1 0 0 0 1 0 0
93 22.0 22.0 10.0 2.0 18 159 47 0 0 0 0 1 0 1 0 0 0
94 18.0 24.0 10.0 22.0 60 199 11 0 0 0 0 1 0 0 0 0 0
95 26.0 27.0 10.0 27.0 58 151 61 0 0 1 0 1 1 0 0 1 0
96 25.0 24.0 10.0 20.0 14 143 90 0 1 0 0 0 0 0 1 0 0
97 22.0 27.0 10.0 11.0 89 190 50 0 1 0 0 0 0 0 0 0 0
98 25.0 21.0 10.0 12.0 92 183 33 0 0 0 1 1 0 1 1 1 0
99 19.0 21.0 10.0 10.0 21 142 39 0 0 1 0 0 0 1 0 0 0
100 20.0 26.0 10.0 9.0 33 142 32 0 0 0 0 0 0 0 1 0 0
101 18.0 18.0 10.0 17.0 51 195 86 0 0 0 0 1 0 0 0 0 0